minizinc/sudoku_problems2/sudoku_p41.dzn
%
% sudoku_p41.dzn
% See http://www.hakank.org/minizinc/sudoku_gcc.mzn
% 
% This problem is problem 41 from
% Gecode's sudoku.cpp
% http://www.gecode.org/gecode-doc-latest/sudoku_8cpp-source.html
% 
x = array2d(1..n, 1..n, [   
% http://janko.at/Raetsel/Sudoku/308.a.htm
% 41
 16,  _, 14,  3,  7,  _,  _,  1,  _,  _,  _,  _,  _,  6,  _,  _,
  9,  6,  _,  _, 14,  _,  _,  3,  _,  _, 16,  5, 13,  _, 15,  _,
  _,  7,  _,  _,  6,  4,  _, 12, 15,  3,  1,  _,  _,  2,  9, 14,
  _,  _,  _,  _, 15,  _,  _,  _,  8,  _,  9, 14,  4,  3,  7,  _,
  6, 10, 15,  _,  _,  _, 13,  _,  3,  _,  _,  1,  _,  _,  _,  _,
  _,  _,  1,  _,  _,  _, 11,  5,  _,  8, 15,  4,  7,  _,  _,  3,
  _,  8,  3, 11,  2,  _,  4,  7,  _, 16,  _,  _,  _,  _,  6,  1,
  _,  _,  7,  9,  _,  6,  _,  _,  _, 14, 12,  _,  _,  8,  _, 16,
 14,  _, 12,  _,  _,  2, 10,  _,  _,  _,  8,  _, 15, 16,  _,  _,
  2,  5,  _,  _,  _,  _, 12,  _, 16, 10,  _,  7,  8, 11,  4,  _,
  7,  _,  _, 10, 13,  3, 15,  _,  2,  4,  _,  _,  _, 14,  _,  _,
  _,  _,  _,  _, 16,  _,  _, 11,  _,  1,  _,  _,  _, 12,  5,  2,
  _,  4, 10,  2, 11,  5,  _, 13,  _,  _,  _,  8,  _,  _,  _,  _,
 15, 14,  8,  _,  _, 16,  2, 10,  1,  _,  7,  3,  _,  _, 12,  _,
  _, 12,  _,  7,  8, 15,  _,  _,  4,  _,  _,  2,  _,  _, 14,  5,
  _,  _,  9,  _,  _,  _,  _,  _, 14,  _,  _, 16,  3,  4,  _,  8
]);

n = 16;


